
Gurobi 9.5.1 (linux64) logging started Sat Jun 25 18:54:00 2022

Set parameter LogFile to value "../results/logs/log_ca-citeseer_3_250_2022_06_25_16_29.log"
Gurobi Optimizer version 9.5.1 build v9.5.1rc2 (linux64)
Thread count: 8 physical cores, 8 logical processors, using up to 8 threads
Optimize a model with 16987 rows, 454640 columns and 163125 nonzeros
Model fingerprint: 0x2c485413
Variable types: 0 continuous, 454640 integer (454640 binary)
Coefficient statistics:
  Matrix range     [1e+00, 3e+00]
  Objective range  [1e+00, 1e+00]
  Bounds range     [1e+00, 1e+00]
  RHS range        [1e+00, 2e+02]
Found heuristic solution: objective 152966.00000
Presolve removed 16987 rows and 454640 columns
Presolve time: 0.06s
Presolve: All rows and columns removed

Explored 0 nodes (0 simplex iterations) in 0.13 seconds (0.09 work units)
Thread count was 1 (of 8 available processors)

Solution count 1: 152966 

Optimal solution found (tolerance 0.00e+00)
Best objective 1.529660000000e+05, best bound 1.529660000000e+05, gap 0.0000%
